(set-info :status unknown)
(declare-fun mem0 () (_ BitVec 8))
(declare-fun |ana_computeKnownZeroBits(%y)| () (_ BitVec 36))
(declare-fun |ana_computeKnownZeroBits(%x)| () (_ BitVec 36))
(declare-fun %y () (_ BitVec 36))
(declare-fun %x () (_ BitVec 36))
(assert
 (let (($x10492 (= (bvor |ana_computeKnownZeroBits(%x)| |ana_computeKnownZeroBits(%y)|) (_ bv68719476735 36))))
 (and (= (bvand |ana_computeKnownZeroBits(%x)| %x) (_ bv0 36)) (= (bvand |ana_computeKnownZeroBits(%y)| %y) (_ bv0 36)) $x10492 (and (distinct mem0 mem0) true))))
(check-sat)
